WARNING: for repeatability, setting FPU to use double precision
============================[ Problem Statistics ]=============================
|                                                                             |
|  Number of variables:           100                                         |
|  Number of clauses:             449                                         |
|  Parse time:                   0.00 s                                       |
|  Simplification time:          0.00 s                                       |
|                                                                             |
============================[ Search Statistics ]==============================
| Conflicts |          ORIGINAL         |          LEARNT          | Progress |
|           |    Vars  Clauses Literals |    Limit  Clauses Lit/Cl |          |
===============================================================================
===============================================================================
restarts              : 1
conflicts             : 70             (inf /sec)
decisions             : 100            (0.00 % random) (inf /sec)
propagations          : 1844           (inf /sec)
conflict literals     : 527            (10.22 % deleted)
Memory used           : 13.00 MB
CPU time              : 0 s

SATISFIABLE
